CMPL model generation - running

CMPL version: 1.11.0
Authors: Thomas Schleiff, Mike Steglich
Distributed under the GPLv3 

create model instance ...
write model instance ...
CMPL model generation - finished

Solver - running


Welcome to IBM(R) ILOG(R) CPLEX(R) Interactive Optimizer 12.7.1.0
  with Simplex, Mixed Integer & Barrier Optimizers
5725-A06 5725-A29 5724-Y48 5724-Y49 5724-Y54 5724-Y55 5655-Y21
Copyright IBM Corp. 1988, 2017.  All Rights Reserved.

Type 'help' for a list of available commands.
Type 'help' followed by a command name for more
information on commands.

CPLEX> Specified objective sense: MINIMIZE
Selected objective  name:  line[1]
Selected RHS        name:  RHS
Selected bound      name:  BOUND
Problem '/tmp/cmpl.T24763.mps' read.
Read time = 0.08 sec. (8.37 ticks)
CPLEX> CPXPARAM_Read_APIEncoding                        "UTF-8"
Found incumbent of value 3467.178418 after 0.01 sec. (2.27 ticks)
Tried aggregator 3 times.
MIP Presolve eliminated 23517 rows and 34430 columns.
MIP Presolve modified 425 coefficients.
Aggregator did 1135 substitutions.
Reduced MIP has 3015 rows, 3745 columns, and 11219 nonzeros.
Reduced MIP has 3535 binaries, 0 generals, 0 SOSs, and 0 indicators.
Presolve time = 0.07 sec. (44.46 ticks)
Probing time = 0.01 sec. (2.85 ticks)
Tried aggregator 1 time.
Reduced MIP has 3015 rows, 3745 columns, and 11219 nonzeros.
Reduced MIP has 3745 binaries, 0 generals, 0 SOSs, and 0 indicators.
Presolve time = 0.01 sec. (7.47 ticks)
Probing time = 0.01 sec. (2.85 ticks)
Clique table members: 3015.
MIP emphasis: balance optimality and feasibility.
MIP search method: dynamic search.
Parallel mode: none, using 1 thread.
Root relaxation solution time = 0.00 sec. (3.36 ticks)

        Nodes                                         Cuts/
   Node  Left     Objective  IInf  Best Integer    Best Bound    ItCnt     Gap

*     0+    0                         3467.1784       -0.0000           100.00%
*     0     0      integral     0      954.0377      954.0377        8    0.00%
Elapsed time = 0.12 sec. (71.51 ticks, tree = 0.00 MB, solutions = 2)

Root node processing (before b&c):
  Real time             =    0.13 sec. (73.15 ticks)
Sequential b&c:
  Real time             =    0.00 sec. (0.00 ticks)
                          ------------
Total (root+branch&cut) =    0.13 sec. (73.15 ticks)

Solution pool: 3 solutions saved.

MIP - Integer optimal solution:  Objective =  9.5403774200e+02
Solution time =    0.13 sec.  Iterations = 8  Nodes = 0
Deterministic time = 73.26 ticks  (571.56 ticks/sec)

CPLEX> Incumbent solution written to file '/tmp/cmpl.T24763.gsol'.
CPLEX> 
CMPL: Time used for model generation: 1 seconds
CMPL: Time used for solving the model: 1 seconds


Solution written to ASCII file: results/output_generated_conf_0.9/2017-07-03-5/fair-linear.sol

Solver - finished
